TCS_Benchmarks/redos_fix/corpus1_output_distinct_4008_4007_16_0.smt2
(set-logic QF_S)
(declare-const x String)
(assert (str.in.re x (re.inter (re.* (re.union (re.range "\u{00}" "\u{09}") (re.range "\u{0b}" "\u{0c}") (re.range "\u{0e}" "\u{84}") (re.range "\u{86}" "\u{ff}")) )  (re.++ (re.* (re.union (re.range "\u{00}" "\u{09}") (re.range "\u{0b}" "\u{0c}") (re.range "\u{0e}" "\u{84}") (re.range "\u{86}" "\u{ff}")) ) (re.++  (re.++  (str.to.re "\u{3c}") (re.++  (str.to.re "\u{66}") (re.++  (str.to.re "\u{6f}") (re.++  (str.to.re "\u{6e}") (re.++  (str.to.re "\u{74}") (re.++  (str.to.re "\u{20}") (re.++  (str.to.re "\u{66}") (re.++  (str.to.re "\u{61}") (re.++  (str.to.re "\u{63}") (re.++  (str.to.re "\u{65}") (re.++  (str.to.re "\u{3d}") (re.++  (str.to.re "\u{22}") (re.++  (str.to.re "\u{61}") (re.++  (str.to.re "\u{72}") (re.++  (str.to.re "\u{69}") (re.++  (str.to.re "\u{61}") (re.++  (str.to.re "\u{6c}") (re.++  (str.to.re "\u{2c}") (re.++  (str.to.re "\u{68}") (re.++  (str.to.re "\u{65}") (re.++  (str.to.re "\u{6c}") (re.++  (str.to.re "\u{76}") (re.++  (str.to.re "\u{65}") (re.++  (str.to.re "\u{74}") (re.++  (str.to.re "\u{69}") (re.++  (str.to.re "\u{63}") (re.++  (str.to.re "\u{61}") (re.++  (str.to.re "\u{22}") (re.++  (str.to.re "\u{20}") (re.++  (str.to.re "\u{73}") (re.++  (str.to.re "\u{69}") (re.++  (str.to.re "\u{7a}") (re.++  (str.to.re "\u{65}") (re.++  (str.to.re "\u{3d}") (re.++  (str.to.re "\u{32}") (re.++  (str.to.re "\u{3e}") (re.++ (re.opt  (re.++  (str.to.re "\u{3c}") (re.++  (re.union  (str.to.re "\u{42}")  (str.to.re "\u{49}"))  (str.to.re "\u{3e}"))) ) (re.++ (re.* (re.union (re.range "\u{00}" "\u{09}") (re.range "\u{0b}" "\u{0c}") (re.range "\u{0e}" "\u{84}") (re.range "\u{86}" "\u{ff}")) ) (re.++  (str.to.re "\u{3c}") (re.++  (str.to.re "\u{2f}") (re.++  (str.to.re "\u{46}") (re.++  (str.to.re "\u{4f}") (re.++  (str.to.re "\u{4e}") (re.++  (str.to.re "\u{54}") (re.++  (str.to.re "\u{3e}") (re.++ (re.* (re.union (re.range "\u{00}" "\u{09}") (re.range "\u{0b}" "\u{0c}") (re.range "\u{0e}" "\u{84}") (re.range "\u{86}" "\u{ff}")) ) (re.++  (str.to.re "\u{3c}") (re.++  (str.to.re "\u{21}") (re.++  (str.to.re "\u{2d}") (re.++  (str.to.re "\u{2d}") (re.++  (str.to.re "\u{20}") (re.++  (str.to.re "\u{2a}") (re.++  (str.to.re "\u{2a}") (re.++  (str.to.re "\u{2a}") (re.++  (str.to.re "\u{20}") (re.++  (str.to.re "\u{4d}") (re.++  (str.to.re "\u{6f}") (re.++  (str.to.re "\u{74}") (re.++  (str.to.re "\u{69}") (re.++  (str.to.re "\u{6f}") (re.++  (str.to.re "\u{6e}") (re.++  (str.to.re "\u{20}") (re.++  (str.to.re "\u{74}") (re.++  (str.to.re "\u{69}") (re.++  (str.to.re "\u{74}") (re.++  (str.to.re "\u{6c}") (re.++  (str.to.re "\u{65}") (re.++  (str.to.re "\u{20}") (re.++  (str.to.re "\u{2a}") (re.++  (str.to.re "\u{2a}") (re.++  (str.to.re "\u{2a}") (re.++  (str.to.re "\u{20}") (re.++  (str.to.re "\u{2d}") (re.++  (str.to.re "\u{2d}")  (str.to.re "\u{3e}"))))))))))))))))))))))))))))))))))))))))))))))))))))))))))))))))))))))))))) (re.* (re.union (re.range "\u{00}" "\u{09}") (re.range "\u{0b}" "\u{0c}") (re.range "\u{0e}" "\u{84}") (re.range "\u{86}" "\u{ff}")) ))) (re.* (re.union (re.range "\u{00}" "\u{09}") (re.range "\u{0b}" "\u{0c}") (re.range "\u{0e}" "\u{84}") (re.range "\u{86}" "\u{ff}")) ) )))
(check-sat)
(get-model)